\ This file has been generated by DOcplex
\ ENCODING=ISO-8859-1
\Problem name: {self.PROBLEM.name} zerosum SOTA problem

Maximize
 obj: V
Subject To
 c1: V - 14.957372578818 a0_0 - 21.321333609497 a0_1 <= 0
 c2: V - 21.321333609497 a0_0 - 21.458494098874 a0_1 <= 0
 c3: a0_0 + a0_1 = 1

Bounds
       a0_0 <= 1
       a0_1 <= 1
       V Free
End
